
p1
9395.0
1 1 1 1 1 1 1 1 1 1 
8 8 1 6 3 0 2 4 4 1 9 8 0 2 0 3 4 0 9 7 3 4 6 4 2 5 1 5 0 5 2 6 0 3 9 4 4 3 0 4 1 0 1 5 7 0 4 0 4 3 


p2
8106.0
1 1 1 1 1 1 1 1 1 1 
8 2 1 6 3 8 2 4 4 1 9 8 3 2 0 3 4 0 9 7 3 4 6 4 2 5 1 5 0 5 2 6 0 3 4 4 4 3 0 4 1 8 1 5 7 0 4 0 4 0 


p3
9940.0
1 1 1 1 1 1 1 1 1 0 
8 2 1 6 3 8 2 4 4 1 4 0 3 2 0 3 2 0 6 7 3 8 6 4 2 5 1 5 0 1 2 6 0 3 4 4 4 3 0 4 5 8 1 5 7 0 4 0 4 3 


p4
11961.0
1 1 1 1 1 1 1 1 1 1 
8 8 1 6 3 8 2 4 4 1 9 0 3 2 0 3 4 0 9 7 3 7 6 4 5 5 1 5 0 5 2 6 0 3 4 4 7 3 0 4 1 8 1 5 7 0 4 0 7 3 


p5
9246.0
1 1 1 1 1 1 1 1 1 1 
8 2 1 6 1 8 2 4 4 1 9 8 0 2 8 3 4 0 9 7 3 8 6 4 1 5 1 5 0 5 9 6 0 3 9 4 4 3 0 4 1 8 1 5 7 0 2 0 2 3 


p6
7851.0
1 1 1 1 1 1 1 1 1 1 
8 2 1 6 1 8 2 4 4 1 9 8 3 2 8 3 4 0 9 7 1 8 6 4 2 6 1 5 0 1 9 6 0 0 2 4 4 3 0 4 1 8 1 5 7 8 9 0 7 3 


p7
9848.0
1 1 1 1 1 1 1 1 1 1 
8 8 1 6 3 8 2 4 4 1 9 8 0 2 8 3 4 0 9 7 1 8 6 4 1 6 3 5 0 5 2 6 0 3 9 4 4 3 0 4 5 8 1 5 7 0 9 0 2 3 


p8
11785.0
1 1 1 1 1 1 1 1 1 1 
8 8 1 6 3 8 2 4 4 1 9 8 3 2 8 3 4 0 9 7 3 8 6 4 5 5 1 5 2 1 2 6 0 3 9 4 4 3 0 4 3 8 1 6 7 0 2 0 7 0 


p9
8580.0
1 1 1 1 1 1 1 1 1 1 
8 8 1 6 3 8 4 4 4 5 9 3 0 2 8 3 4 0 9 7 3 8 6 4 2 5 1 1 0 1 2 6 0 3 9 4 7 3 0 4 1 8 3 5 7 0 4 0 2 0 


p10
7584.0
1 1 1 1 1 1 1 1 1 1 
8 8 1 6 3 8 2 4 4 1 9 8 3 2 8 3 4 0 9 7 1 8 6 4 2 5 1 5 0 1 2 6 0 3 4 4 4 3 0 4 1 8 1 6 7 0 4 3 7 0 


p11
9439.0
1 1 1 1 1 0 1 1 1 1 
8 8 1 6 3 8 2 4 4 1 9 8 0 2 8 3 4 0 9 7 3 8 6 4 2 6 1 6 0 1 9 6 0 3 9 4 4 3 0 4 1 8 1 6 7 0 4 0 4 0 


p12
11196.0
1 1 1 1 1 0 1 1 1 1 
8 8 1 6 3 8 2 4 4 1 9 8 0 2 8 0 4 0 9 7 3 8 6 4 1 2 1 1 0 1 2 6 0 3 9 4 7 3 8 4 1 8 1 2 7 0 9 0 8 0 


p13
11769.0
0 1 0 0 1 1 1 0 0 1 1 1 1 1 1 1 1 1 0 1 
16 12 10 10 1 5 17 13 14 17 5 4 12 6 13 14 15 10 4 9 14 15 15 19 6 17 16 17 1 17 13 10 19 16 11 10 11 19 19 13 14 15 5 16 11 5 12 10 19 9 


p14
8970.0
0 1 0 1 1 1 1 0 0 0 1 0 1 1 1 1 1 1 0 1 
16 12 10 10 1 13 17 13 14 17 15 4 1 10 13 3 15 10 4 6 12 5 15 19 6 17 16 17 1 17 13 14 13 16 3 10 3 12 19 13 6 5 5 16 3 5 14 10 19 6 


p15
12770.0
1 1 1 1 1 1 1 0 0 1 1 0 1 1 1 1 1 1 0 1 
16 12 10 10 1 15 17 2 14 17 15 4 1 6 13 3 15 10 4 9 12 5 15 19 6 17 16 17 1 17 13 16 2 16 3 10 14 19 19 13 6 0 5 0 3 5 14 10 19 9 


p16
16631.0
1 1 0 1 1 1 1 0 0 1 1 0 1 1 1 1 1 1 0 1 
16 12 10 10 1 13 3 13 14 17 15 4 1 6 13 3 15 10 4 9 12 15 15 19 6 17 16 17 1 17 13 14 3 16 3 10 4 19 19 13 6 0 5 0 9 5 14 10 19 9 


p17
11791.0
1 1 0 1 1 1 1 0 0 1 1 0 1 1 1 1 1 1 0 1 
16 12 10 10 1 5 17 13 14 17 15 4 1 6 13 3 15 10 4 9 12 15 15 19 9 17 16 17 1 17 13 5 13 16 3 10 3 19 19 13 6 0 5 0 9 5 14 10 19 9 


p18
9104.0
0 1 0 0 1 1 1 0 0 1 1 1 1 1 1 1 1 1 0 1 
16 12 10 10 12 19 17 13 14 17 15 4 1 6 13 11 15 10 4 9 12 15 15 19 6 4 16 17 1 17 13 15 19 16 1 10 11 19 19 13 6 16 5 16 11 5 14 10 19 9 


p19
12440.0
0 1 1 1 1 1 1 0 0 1 1 0 1 1 1 1 1 1 0 1 
16 12 10 10 1 13 17 13 14 17 15 17 1 6 13 3 15 10 4 9 12 15 15 19 6 4 16 17 19 17 13 16 2 16 3 10 12 19 19 13 6 13 5 16 3 5 14 10 19 9 


p20
16730.0
1 1 0 1 1 1 1 1 0 1 1 0 1 1 1 1 1 1 0 1 
16 12 10 10 1 10 17 13 14 17 15 4 1 6 13 3 15 10 4 9 12 15 15 19 6 17 16 17 1 17 13 7 14 16 3 10 12 19 19 13 6 0 5 0 7 5 14 10 19 9 


p21
11582.0
1 1 0 1 0 1 1 0 0 1 1 0 0 1 0 1 1 1 0 1 
16 1 10 10 1 15 17 13 3 17 15 1 1 6 13 3 15 10 19 9 3 15 15 19 6 17 16 17 1 17 13 15 13 16 3 10 17 19 19 13 6 0 5 0 9 5 10 10 19 9 


p22
8923.0
1 1 0 1 1 1 0 0 0 1 1 0 1 1 1 1 1 1 0 1 
16 12 10 10 1 13 3 13 14 17 15 4 1 10 13 3 15 10 4 9 12 15 15 13 10 1 0 17 1 17 13 15 13 16 3 10 17 19 19 13 10 0 5 16 9 5 14 10 19 9 


p23
12977.0
1 1 0 1 0 0 1 1 0 1 1 0 1 1 0 1 1 1 0 1 
16 12 10 10 1 1 17 13 10 17 15 1 1 6 13 3 15 10 17 9 12 15 7 19 6 17 16 17 1 17 13 7 13 0 12 10 3 19 19 13 9 0 0 16 12 15 7 10 19 9 


p24
16611.0
1 1 0 1 1 1 1 0 0 1 1 0 1 1 1 1 1 1 0 1 
16 12 10 10 1 13 19 13 14 17 15 4 1 6 13 3 15 10 4 9 12 15 15 19 6 17 16 17 1 17 13 10 14 16 3 10 17 19 19 13 6 0 5 0 3 5 14 10 19 9 


p25
18787.0
1 0 1 1 1 1 1 1 1 1 0 1 0 1 1 1 1 1 0 0 1 1 0 0 1 1 1 1 1 1 
20 11 13 2 20 5 2 9 14 17 26 16 8 20 0 14 14 17 5 11 2 0 5 3 5 8 7 24 5 24 5 25 6 25 20 20 24 15 0 14 0 14 15 8 24 14 0 13 27 8 29 11 14 5 13 20 17 13 0 14 0 5 20 7 11 11 9 0 5 9 16 6 11 17 24 8 26 20 14 24 20 7 13 17 17 17 17 4 20 5 2 24 17 11 17 5 2 3 27 20 8 17 14 0 2 29 7 11 14 28 14 3 2 11 11 21 24 24 24 24 5 8 25 13 13 0 5 9 11 5 0 11 24 5 28 14 7 5 20 0 0 3 20 14 8 25 25 5 2 5 


p26
15724.0
1 0 1 1 1 1 1 1 1 1 0 1 0 1 1 1 1 1 0 1 1 1 0 0 1 1 0 1 1 0 
20 11 13 2 20 5 19 9 19 17 15 20 8 20 3 14 14 17 5 11 2 19 0 4 5 8 0 24 5 24 5 11 6 25 20 20 24 24 5 14 0 14 15 4 24 17 5 13 27 8 7 16 14 5 13 20 17 11 0 14 0 5 20 11 11 25 9 0 5 5 20 6 11 17 24 20 11 20 4 24 20 7 13 17 19 17 17 4 20 5 2 24 17 27 0 27 2 16 21 16 8 17 14 25 2 7 19 11 14 28 14 17 2 11 11 11 24 24 24 24 5 16 25 13 16 4 5 4 0 0 0 2 24 27 8 14 0 5 20 0 0 8 20 14 8 25 25 5 2 5 


p27
21042.0
1 0 1 0 0 1 0 1 1 1 0 1 0 1 1 1 1 1 0 1 1 1 0 0 1 1 1 1 1 1 
20 11 13 2 20 5 2 9 14 17 29 16 8 20 14 14 14 11 5 11 25 0 19 29 5 8 19 24 21 26 5 25 27 25 20 20 24 15 0 14 0 14 15 8 24 14 28 13 27 8 29 11 11 5 13 20 17 11 0 14 0 5 20 11 11 11 9 0 26 9 20 8 11 17 24 8 11 20 14 24 20 17 13 17 17 17 17 25 20 7 2 24 17 11 17 5 2 2 21 16 8 17 14 25 2 29 20 11 14 28 14 2 2 11 11 21 24 24 24 24 5 8 25 13 16 0 5 9 0 19 0 11 24 5 8 14 7 5 20 0 0 8 20 14 8 25 25 5 2 5 


p28
26281.0
1 0 1 0 1 1 1 1 1 1 0 1 0 1 1 1 0 1 0 1 1 1 0 0 1 1 0 1 1 0 
13 11 13 2 28 5 2 9 14 17 24 28 8 20 19 14 14 17 27 11 2 0 5 25 5 8 19 24 5 24 5 25 6 25 20 20 24 15 0 14 0 14 15 8 24 14 0 13 27 8 11 19 14 5 13 20 17 11 0 14 0 5 20 11 11 11 5 0 5 9 20 6 11 17 24 8 25 20 14 24 20 7 13 17 17 17 17 4 20 5 19 24 17 11 17 5 2 2 21 7 8 17 14 25 25 27 7 11 14 28 14 27 14 11 11 21 24 24 24 24 5 8 25 13 8 0 5 9 0 14 0 4 24 5 8 14 7 0 20 0 0 14 8 14 8 25 25 5 2 5 


p29
18888.0
1 0 1 1 1 1 1 1 1 1 0 1 0 1 1 1 1 1 0 0 1 1 0 0 1 1 1 0 0 1 
20 11 13 2 20 5 2 9 14 17 24 16 8 20 3 14 14 17 5 11 2 0 5 3 5 8 2 24 5 24 5 25 6 25 20 20 24 15 4 14 0 14 15 8 24 14 0 13 0 8 29 14 14 5 13 20 17 11 0 14 0 5 20 11 11 11 9 0 5 9 20 6 11 17 24 8 26 20 14 24 20 7 13 17 17 17 17 4 20 5 2 24 17 11 17 5 2 2 21 16 8 17 17 25 2 29 17 11 14 8 14 11 2 11 11 21 24 24 24 24 5 8 25 13 16 0 5 9 0 4 0 11 24 5 8 14 7 5 20 17 0 8 20 14 8 25 25 11 2 24 


p30
15957.0
1 0 1 1 0 1 1 1 1 1 0 1 0 1 1 1 1 1 0 0 1 1 0 0 1 1 0 0 0 0 
20 11 13 2 20 5 2 9 8 17 11 16 8 20 3 0 14 17 5 11 2 0 5 3 5 8 17 24 5 24 5 25 6 25 20 20 24 15 0 14 0 14 15 20 24 14 2 13 0 8 17 14 14 5 13 20 2 7 0 14 0 24 20 11 11 11 9 0 5 15 20 6 11 2 24 8 25 20 14 9 20 7 13 17 17 17 7 25 20 5 2 24 17 11 17 24 2 16 21 16 7 17 17 25 2 17 7 11 8 14 14 5 2 11 11 21 24 24 24 24 5 8 25 13 16 21 5 9 0 2 0 11 24 11 8 14 0 5 20 17 0 8 20 14 8 25 25 0 2 11 


p31
21145.0
1 0 1 1 0 1 0 1 1 1 0 1 0 1 1 1 1 1 0 0 1 1 0 0 1 1 1 0 0 1 
20 11 13 2 20 5 2 9 14 17 26 16 8 20 3 14 14 17 5 11 2 0 26 3 5 8 0 24 5 24 5 25 2 25 20 20 24 15 0 14 0 14 15 8 24 14 0 13 25 8 29 14 14 5 13 20 17 11 0 14 17 5 20 11 11 11 9 0 17 9 20 20 11 17 24 8 26 20 14 24 20 7 13 17 17 17 17 11 20 5 2 24 17 11 17 5 2 9 21 16 8 17 17 25 2 29 17 11 14 2 14 25 2 11 11 21 24 24 24 24 5 8 25 13 16 0 5 9 0 8 0 11 24 5 8 14 7 5 20 17 0 8 20 14 8 25 25 11 2 24 


p32
26340.0
1 0 1 1 0 1 1 1 1 1 0 1 0 1 1 1 1 1 0 0 1 1 0 0 1 1 0 0 0 1 
20 11 13 2 20 5 2 9 14 17 29 16 8 20 3 14 14 17 5 11 2 0 5 3 5 8 2 24 5 24 5 25 6 25 20 20 24 15 0 14 0 14 15 8 24 14 0 13 11 8 29 14 14 5 13 20 17 11 0 14 0 5 20 11 11 11 9 0 5 9 20 6 11 17 24 8 25 20 14 24 20 7 13 17 17 17 17 0 20 5 2 24 17 11 17 5 2 2 21 16 8 17 17 25 2 29 17 11 14 8 14 17 2 11 11 21 24 24 24 24 5 8 25 13 16 0 5 9 0 11 0 11 24 5 8 14 7 5 20 17 0 8 20 14 8 25 25 11 2 24 


p33
18550.0
1 0 1 1 0 1 1 1 1 1 0 1 0 1 1 1 1 1 0 1 1 1 0 1 1 1 1 0 0 1 
20 11 13 2 20 5 2 9 14 17 11 16 8 20 3 14 14 17 5 11 2 0 23 3 5 8 19 24 5 24 5 17 6 25 20 20 24 24 9 14 0 14 15 2 24 14 0 13 5 8 29 23 14 5 13 20 17 11 0 14 0 5 20 11 11 11 9 0 5 9 20 6 11 17 24 8 26 20 19 24 8 7 13 17 17 17 17 19 20 5 2 24 17 11 17 5 2 3 21 16 11 17 17 25 2 29 17 11 14 8 14 17 2 11 11 21 24 24 24 24 5 8 25 13 20 0 5 9 0 23 0 11 24 5 8 14 7 5 20 17 0 8 20 14 8 25 25 5 2 5 


p34
15703.0
1 0 1 1 1 1 0 1 1 1 0 1 0 1 1 1 1 1 0 0 1 1 0 0 1 1 0 1 0 1 
20 11 13 2 20 5 2 9 14 17 24 16 8 20 3 14 14 17 5 11 2 0 5 3 5 20 17 24 5 24 5 25 14 25 20 20 24 15 0 14 0 14 15 8 24 14 25 13 27 8 9 14 14 5 14 20 17 11 0 14 0 5 20 11 0 11 9 0 5 9 17 8 11 17 24 8 27 20 14 24 20 7 13 17 17 17 17 4 20 5 2 24 17 11 17 29 2 3 21 16 8 11 17 25 2 29 17 7 14 8 17 4 2 11 11 21 24 24 24 24 5 8 25 13 16 0 5 5 0 14 0 11 24 5 8 14 7 0 20 17 0 8 20 14 8 25 25 5 2 5 


p35
20903.0
1 0 1 1 1 1 1 1 1 1 0 1 0 1 1 1 1 1 0 1 1 1 0 0 1 1 0 0 1 1 
20 11 13 2 6 5 2 9 14 17 24 16 8 20 3 14 14 17 5 11 2 8 5 3 21 8 19 24 5 29 5 25 6 25 20 20 24 15 7 14 0 14 15 8 24 14 0 13 4 8 29 14 14 5 13 20 17 11 7 14 0 5 20 11 11 11 9 0 5 9 20 6 11 17 24 8 5 20 14 24 20 7 13 17 17 17 2 4 20 5 2 24 17 11 17 5 2 2 21 16 8 17 17 25 2 29 17 11 14 28 14 0 2 11 11 21 24 24 24 24 5 11 25 13 16 0 0 9 0 19 0 11 24 5 8 14 28 5 20 17 11 19 20 14 8 25 25 5 2 5 


p36
26090.0
1 0 1 1 0 1 1 1 1 1 0 1 0 1 1 1 1 1 0 1 1 1 0 0 1 1 0 0 0 1 
20 11 13 2 20 5 2 9 14 17 21 16 8 20 3 14 14 17 5 11 2 0 5 3 5 8 19 24 5 24 5 25 6 25 20 20 24 15 0 14 0 14 15 8 24 14 0 13 11 8 29 14 14 5 13 20 17 11 0 14 0 5 20 11 11 11 9 0 5 9 20 6 11 17 24 8 0 20 14 24 20 7 13 17 17 17 17 19 20 5 2 24 17 11 17 5 2 2 21 16 8 17 17 25 2 29 17 11 14 20 14 3 2 11 11 21 24 24 24 24 5 8 25 13 16 0 5 9 0 25 0 11 24 5 8 14 7 5 20 17 0 8 20 14 8 25 25 5 2 5 


p37
18542.0
1 0 1 1 0 1 1 1 1 1 0 1 0 1 1 1 1 1 0 0 1 1 0 0 1 1 1 0 1 1 
20 11 13 2 20 5 2 9 14 17 28 16 8 20 3 14 14 17 5 11 2 0 5 3 5 8 17 24 5 24 5 25 6 25 20 20 24 15 0 14 0 14 15 8 24 14 0 13 17 8 29 14 14 5 13 20 17 11 0 14 0 5 20 11 11 11 9 0 5 9 20 6 11 17 24 8 26 20 14 24 20 7 13 17 17 17 17 11 20 5 2 24 17 11 17 5 2 2 21 16 8 17 17 25 2 29 17 11 14 28 14 11 2 11 11 21 24 24 24 24 5 8 25 13 16 0 5 9 0 2 0 11 24 5 8 14 7 5 20 17 0 8 20 14 8 25 25 5 2 5 


p38
15737.0
1 1 1 0 0 1 0 1 1 1 0 1 0 1 1 1 1 1 0 0 1 0 0 0 1 1 0 1 0 1 
20 11 13 2 20 5 2 9 14 17 17 16 8 20 0 14 14 17 5 11 2 29 5 17 5 8 7 24 5 24 5 25 20 25 20 20 24 15 0 14 0 14 15 8 24 14 0 13 27 8 29 14 14 5 13 20 17 2 0 14 0 5 20 11 11 11 9 0 5 9 20 13 11 17 24 8 25 20 14 24 20 7 13 17 17 17 17 2 20 5 7 24 17 11 17 5 2 2 5 16 8 17 17 25 7 29 17 11 14 20 14 1 2 11 11 24 24 24 24 24 5 8 25 13 16 27 5 9 0 1 0 11 24 5 8 14 7 5 20 17 0 8 20 14 8 25 25 5 2 5 


p39
20889.0
1 0 1 1 0 1 1 1 1 1 0 1 0 1 1 0 1 1 0 1 1 1 0 0 1 1 0 0 1 1 
20 11 13 2 20 5 2 9 14 17 29 16 8 20 3 14 14 17 5 11 2 11 5 3 5 8 19 24 5 24 5 25 6 25 20 20 24 7 0 14 0 14 5 8 5 14 0 13 11 8 29 14 14 5 13 20 17 11 0 14 0 5 20 11 11 11 9 0 19 9 20 6 11 17 24 8 7 20 14 24 20 7 13 17 17 17 17 7 20 5 2 24 17 11 17 5 2 2 21 16 8 17 17 25 2 29 17 11 14 28 14 14 2 11 11 21 24 24 24 24 5 8 25 13 16 0 5 9 0 19 0 11 24 5 8 14 7 5 20 17 0 8 20 14 8 25 25 5 2 5 


p40
26090.0
1 0 1 1 0 1 1 1 1 1 0 1 0 1 1 0 1 1 0 0 1 1 0 0 1 1 0 1 0 1 
20 11 13 2 20 5 2 9 14 17 9 16 8 20 3 14 14 17 5 11 2 0 9 3 5 8 14 24 5 24 5 25 6 25 20 20 24 24 0 14 0 14 27 8 24 14 0 13 27 8 7 14 14 5 13 20 17 11 0 14 0 5 20 11 11 11 9 0 5 9 20 6 11 17 24 8 29 20 14 24 20 7 13 17 17 17 17 2 20 5 2 24 17 11 17 5 2 2 21 16 8 17 17 25 2 29 17 11 14 8 14 7 2 11 11 21 24 24 24 24 5 8 25 13 13 0 5 9 0 7 0 29 24 5 8 14 7 5 20 17 0 8 20 14 8 25 25 5 2 5 


p41
7159.0
1 0 1 1 1 1 1 1 1 1 
5 6 4 4 7 9 5 7 8 8 4 9 2 9 9 7 7 3 0 6 6 6 4 4 4 5 4 4 5 5 8 0 0 0 3 9 2 6 6 2 2 7 3 3 3 5 4 5 5 4 4 6 6 6 2 7 2 8 8 8 0 0 6 5 0 6 6 6 4 4 0 4 4 0 7 7 2 2 2 5 5 2 2 6 9 9 6 9 7 9 


p42
9461.0
1 1 0 1 0 1 1 1 1 1 1 1 1 1 1 1 0 1 1 1 
1 18 11 19 19 18 0 13 17 7 11 8 6 10 6 15 3 9 14 14 14 9 9 10 12 8 8 11 17 11 7 19 6 8 14 10 10 0 0 0 8 8 3 12 11 14 18 19 15 15 1 17 7 13 3 5 13 14 19 14 11 18 18 3 14 3 0 12 19 6 15 11 19 5 19 18 18 6 19 19 


p43
12018.0
1 1 0 0 0 1 1 0 1 0 0 1 0 1 0 1 0 1 1 0 1 1 1 1 1 1 1 1 0 1 
15 8 11 24 21 22 25 21 27 24 24 25 25 22 17 11 11 15 5 20 25 26 22 20 17 13 29 18 24 5 5 20 5 13 0 22 5 27 8 15 27 6 21 23 5 25 26 17 17 11 21 0 17 18 0 6 8 20 24 29 5 23 1 29 27 27 24 27 1 29 


p44
7458.0
1 1 1 1 1 1 1 1 1 1 
4 4 4 4 4 4 4 4 0 6 0 0 6 0 6 0 1 1 1 1 1 8 7 2 2 2 2 2 2 2 2 3 3 3 3 3 3 3 3 3 4 0 8 8 8 8 7 5 5 7 7 6 4 5 9 8 9 7 9 7 7 3 3 3 0 6 6 2 1 4 0 9 9 7 7 8 6 6 7 7 5 7 9 9 9 9 6 5 0 5 


p45
9342.0
1 0 1 1 1 1 1 1 1 0 1 1 1 1 0 1 1 1 0 0 
0 0 0 0 5 0 0 6 15 6 10 6 6 10 6 3 3 3 2 3 2 4 4 4 4 4 4 4 4 5 5 5 5 5 5 5 0 5 0 0 2 3 11 12 13 16 16 2 15 16 8 8 11 16 15 17 8 15 17 10 2 2 15 16 6 11 2 8 7 7 6 12 13 13 5 11 8 7 10 13 


p46
12218.0
0 1 1 0 1 1 1 1 1 0 1 1 0 1 1 1 0 1 1 0 0 0 0 0 0 0 1 0 1 1 
10 10 10 29 10 28 28 1 11 11 1 11 11 11 11 18 11 2 2 26 2 4 4 5 4 6 5 7 8 8 8 13 7 7 10 2 2 17 14 28 18 28 15 17 4 18 17 17 10 10 10 13 13 29 2 26 13 18 2 5 1 15 1 28 26 6 14 26 18 18 


p47
6544.0
1 1 1 1 1 1 1 1 1 1 
0 2 0 0 0 0 8 0 2 0 1 2 1 1 1 1 0 2 2 2 2 2 2 2 2 2 2 3 3 3 3 3 3 3 3 4 4 4 4 4 4 4 4 4 4 4 4 5 5 5 5 5 5 5 6 6 6 6 6 6 4 6 7 7 6 7 6 0 7 7 7 7 7 8 0 8 9 8 2 8 8 8 9 9 9 0 2 0 9 2 


p48
8707.0
1 1 0 1 0 1 1 1 1 1 1 1 1 1 1 1 0 1 1 1 
1 17 13 0 1 17 1 1 1 1 3 19 3 3 3 8 3 7 5 5 5 3 5 6 6 9 6 6 5 7 7 8 13 8 13 8 8 9 9 5 10 9 13 10 11 10 10 12 10 13 12 6 13 12 13 14 15 11 15 13 0 15 14 14 15 19 13 17 0 17 17 17 17 18 18 19 18 0 19 0 


p49
12162.0
1 1 1 0 0 1 1 1 1 0 1 1 0 1 1 0 1 1 1 0 1 1 1 1 1 1 1 1 1 0 
0 1 1 2 1 2 2 2 7 5 7 5 10 6 6 6 11 5 10 7 7 2 11 10 8 11 10 20 20 14 13 13 13 14 8 18 16 16 17 16 17 16 20 0 18 24 18 20 21 18 21 18 0 22 23 23 22 24 24 26 25 26 25 26 27 28 28 27 28 28 


p50
9955.0
1 1 1 1 1 1 1 1 0 1 
4 1 3 0 2 9 5 2 3 7 5 4 2 9 9 9 9 2 5 3 6 0 0 4 0 6 5 4 3 7 7 7 3 3 3 5 9 9 6 6 0 9 9 1 5 5 5 5 5 3 3 5 5 0 0 0 1 2 1 2 2 7 7 7 3 7 0 4 4 7 3 0 9 6 0 4 3 3 3 4 3 5 2 2 2 2 1 7 2 7 9 9 5 2 1 9 6 9 2 2 


p51
10927.0
1 1 1 1 0 1 1 1 1 0 1 0 1 1 1 1 1 1 1 1 
15 6 17 0 18 13 5 16 17 1 5 3 3 18 6 13 12 16 2 15 17 0 10 14 14 14 1 19 19 7 1 14 17 19 15 5 13 13 10 0 0 13 13 13 16 16 5 5 5 5 15 2 12 14 14 10 6 6 13 12 17 5 1 5 15 16 19 3 7 15 15 0 0 0 10 19 19 19 1 3 19 5 16 12 13 13 6 8 12 1 13 13 13 12 12 13 8 18 18 0 


p52
9989.0
1 1 0 1 1 1 1 1 1 1 
7 7 7 7 7 7 7 7 3 4 4 3 4 4 4 4 4 5 3 3 8 5 8 8 3 9 9 9 9 9 9 9 9 5 6 6 6 6 6 6 6 6 7 6 7 7 4 3 8 6 8 3 4 1 7 5 4 3 3 4 7 5 5 5 0 3 6 6 1 6 6 7 7 4 3 5 8 3 4 1 6 4 6 5 6 3 3 7 5 4 5 0 1 8 5 1 4 4 3 3 


p53
12040.0
1 1 1 1 0 1 1 1 0 1 0 0 1 1 0 1 0 1 1 1 
5 5 5 5 5 5 5 5 19 19 19 7 6 7 7 7 7 12 12 13 12 13 3 12 3 9 9 9 9 9 9 9 9 15 18 18 18 18 17 18 18 18 18 18 5 18 7 12 13 15 15 5 7 18 5 13 3 3 1 6 18 2 15 13 0 13 2 5 6 5 17 18 6 12 3 15 3 1 6 2 0 19 13 1 15 15 3 6 15 17 3 2 17 17 2 17 1 6 1 6 


p54
10120.0
1 1 1 1 1 1 1 1 1 1 
7 9 7 7 7 5 7 2 7 1 2 2 2 2 2 2 2 2 2 1 1 1 1 1 3 1 3 1 3 2 3 3 3 3 3 3 3 3 3 6 3 8 6 3 8 3 8 8 3 8 8 8 6 6 6 6 6 6 6 6 8 6 5 6 5 5 6 5 6 0 0 6 0 5 9 0 0 0 0 0 0 4 0 4 4 4 4 4 4 4 2 9 9 9 2 4 7 7 4 4 


p55
11635.0
1 0 1 1 1 0 1 1 1 1 0 1 1 1 1 1 1 1 1 1 
17 17 16 17 16 4 4 18 8 8 4 8 2 6 8 2 6 2 8 12 4 6 12 6 12 12 12 6 6 6 6 14 14 6 6 6 6 6 2 7 7 19 19 7 0 0 0 0 6 0 0 0 7 6 7 7 7 7 7 7 3 11 9 19 3 19 11 7 11 9 9 3 9 11 17 13 9 13 13 13 15 15 15 15 15 15 15 15 17 13 17 18 18 18 18 17 18 18 18 18 


p56
23544.0
1 1 1 1 1 1 1 1 1 1 1 1 1 1 1 1 1 1 1 1 1 1 1 1 1 1 1 1 1 1 
18 19 21 27 0 12 16 27 22 28 4 28 13 1 28 18 1 26 22 0 18 27 5 24 10 18 27 19 29 2 19 19 4 16 27 19 20 8 24 16 18 9 6 4 8 19 13 21 19 14 21 24 24 16 8 6 11 8 18 7 29 0 7 8 9 11 5 14 28 25 18 12 19 9 23 23 20 23 8 16 10 0 9 25 29 13 6 5 18 7 28 6 25 25 2 3 11 6 0 28 28 15 25 18 4 0 4 16 22 3 26 4 0 12 12 8 28 7 17 8 14 11 17 28 26 16 21 11 26 17 28 0 25 20 23 9 3 3 28 10 12 22 11 11 25 5 24 15 27 25 24 17 23 0 8 11 2 15 3 13 13 27 10 24 5 27 5 4 3 21 1 20 19 14 26 2 0 17 29 20 5 21 2 19 12 8 28 23 0 21 2 21 6 4 7 6 7 15 10 19 


p57
32551.0
1 1 1 1 1 1 1 1 1 1 1 1 1 1 1 1 1 1 1 1 1 1 1 1 1 1 1 1 1 1 
18 19 21 27 21 12 21 27 22 28 26 28 10 3 28 18 1 20 22 0 18 16 5 24 10 18 27 17 29 2 19 19 4 2 27 6 20 8 24 16 18 9 6 29 8 17 13 21 19 14 24 16 16 16 8 6 11 9 18 7 29 0 7 9 13 11 5 14 28 25 18 12 19 9 23 23 20 23 8 24 10 0 9 25 29 13 6 5 27 7 28 6 25 25 2 3 19 6 0 28 28 15 25 18 4 0 4 24 22 3 19 4 27 12 12 8 28 7 17 8 26 11 17 19 20 21 2 11 26 17 28 24 25 20 23 9 3 3 28 10 12 22 11 11 25 5 24 15 27 25 24 17 23 0 8 11 2 15 3 10 13 0 10 24 5 27 5 4 3 21 1 14 19 14 26 2 0 23 29 10 5 21 2 19 12 8 28 17 0 21 2 21 6 4 7 12 7 15 10 19 


p58
53544.0
1 1 1 1 1 1 1 1 1 1 1 1 1 1 1 1 1 1 1 1 1 1 1 1 1 1 1 1 1 1 
18 19 21 27 2 12 15 27 22 28 4 28 13 1 28 18 1 20 22 0 18 16 5 21 10 11 27 19 29 2 19 25 4 16 27 6 20 8 24 16 18 9 6 4 8 19 13 21 19 14 24 16 24 16 8 6 11 9 18 22 29 0 7 8 13 11 5 14 28 25 18 12 19 9 23 23 20 23 8 16 10 0 9 25 29 13 6 5 27 7 28 6 25 25 2 3 11 6 0 28 17 15 25 18 4 0 4 24 22 3 19 4 27 12 12 8 28 18 17 8 26 11 17 19 26 16 2 11 26 17 28 24 25 20 23 9 3 3 28 10 11 22 6 11 25 16 24 15 27 25 24 17 23 0 8 11 2 15 3 13 13 27 10 24 5 27 5 4 3 21 1 20 19 14 26 2 0 10 29 10 5 21 2 19 12 3 28 23 0 21 2 21 6 4 11 12 7 15 10 19 


p59
38937.0
1 1 1 1 1 1 1 1 1 1 1 1 1 1 1 1 1 1 1 1 1 1 1 1 1 1 1 1 1 1 
18 4 21 22 2 12 15 27 22 28 4 28 13 1 28 18 1 20 22 0 18 16 5 24 10 18 27 14 29 2 19 19 4 16 27 6 20 20 24 16 18 9 6 4 8 19 8 21 19 14 24 16 24 16 8 6 7 9 18 25 29 24 7 8 20 11 5 14 6 25 25 12 19 9 23 23 20 23 8 16 13 0 9 25 29 13 6 5 27 7 28 6 25 25 2 3 7 6 28 28 28 15 25 18 4 0 4 24 22 3 19 4 27 12 12 8 28 7 17 8 26 11 17 19 26 16 21 11 26 17 28 24 25 20 23 9 3 3 28 10 12 27 11 11 25 21 0 15 27 25 24 17 23 0 8 11 5 15 3 13 13 27 10 24 5 27 5 4 3 21 1 20 19 14 26 2 0 10 29 10 5 2 2 6 12 8 28 10 0 2 2 21 6 4 7 12 7 15 10 19 


p60
23676.0
1 1 1 1 1 1 1 1 1 1 1 1 1 1 1 1 1 1 1 1 1 1 1 1 1 1 1 1 1 1 
11 19 21 27 2 12 15 27 27 28 4 28 13 1 11 18 1 20 22 0 18 16 5 24 10 18 27 19 29 2 19 19 19 16 27 6 13 8 24 16 18 9 6 4 8 19 13 21 19 14 24 16 2 16 8 6 11 8 18 7 29 0 7 8 13 11 5 14 19 25 7 12 19 9 23 10 20 23 8 16 10 0 9 25 29 13 6 5 27 7 28 6 25 25 2 3 28 12 0 11 28 15 25 18 4 0 4 24 22 3 19 29 22 12 12 8 28 7 17 20 26 11 17 4 4 16 0 28 26 17 18 24 25 14 23 14 3 3 28 10 12 22 19 7 25 5 24 15 27 25 24 17 23 0 8 11 2 15 3 13 13 27 23 24 5 27 5 4 3 21 1 20 14 14 26 2 0 10 29 10 5 21 5 19 12 8 19 23 0 21 2 15 6 4 7 12 7 15 10 19 


p61
32465.0
1 1 1 1 1 1 1 1 1 1 1 1 1 1 1 1 1 1 1 1 1 1 1 1 1 1 1 1 1 1 
18 0 21 16 2 12 15 27 22 28 4 28 2 1 28 18 13 20 22 0 18 16 5 24 10 22 27 19 29 2 19 19 4 16 27 6 20 8 24 16 18 8 6 4 8 4 13 21 19 14 24 16 24 16 8 6 11 9 18 7 4 0 7 8 13 11 5 14 28 25 18 12 19 9 23 1 20 23 8 22 10 10 9 25 29 14 6 5 27 7 28 6 25 25 2 3 11 6 0 28 28 15 25 18 4 0 4 24 22 3 19 4 27 12 12 8 28 7 17 20 26 11 17 19 26 16 2 11 26 17 28 24 25 20 23 9 3 3 28 10 12 22 11 11 25 5 24 15 18 25 24 17 23 24 8 11 2 15 3 13 1 27 10 24 5 27 5 4 3 21 1 14 14 14 26 2 0 10 29 20 5 21 2 17 12 8 28 23 0 21 2 21 6 4 7 12 7 15 10 19 


p62
53403.0
1 1 1 1 1 1 1 1 1 1 1 1 1 1 1 1 1 1 1 1 1 1 1 1 1 1 1 1 1 1 
18 19 21 27 2 12 15 27 22 28 4 28 13 1 28 18 1 20 22 0 24 16 5 24 10 18 27 19 29 2 19 19 4 16 27 6 10 8 24 16 18 9 6 4 1 19 13 21 19 14 24 16 24 16 8 6 11 9 18 28 29 0 7 8 13 11 5 14 28 25 27 12 14 9 5 23 23 23 8 16 10 0 9 25 4 13 6 5 27 7 28 6 25 25 2 3 11 6 0 28 28 15 25 18 4 10 4 24 22 3 19 4 27 24 12 8 28 7 17 8 26 25 17 19 9 16 2 11 26 17 6 24 25 10 23 9 3 3 28 10 28 22 11 11 25 5 27 15 27 25 24 28 23 0 8 25 2 15 3 13 13 27 13 24 5 27 10 4 3 24 1 20 0 14 26 2 0 1 29 10 5 21 2 19 12 8 28 10 0 21 2 21 6 4 7 12 7 15 10 19 


p63
38783.0
1 1 1 1 1 1 1 1 1 1 1 1 1 1 1 1 1 1 1 1 1 1 1 1 1 1 1 1 1 1 
18 19 2 27 2 12 21 27 22 28 4 19 13 1 11 18 1 20 22 11 18 16 5 24 10 18 27 17 29 15 4 19 4 16 27 6 20 8 24 16 18 9 6 4 14 19 13 21 19 14 24 16 24 16 8 6 12 9 18 7 29 0 7 8 13 11 5 14 28 25 18 12 19 9 23 23 13 23 8 16 10 2 9 11 29 2 6 5 27 7 28 6 25 25 2 3 11 6 5 28 28 5 25 18 4 28 4 24 22 3 19 29 0 12 19 8 28 7 14 20 10 11 17 19 26 16 2 11 26 17 28 24 25 20 23 9 3 3 28 10 12 22 11 11 25 5 24 15 27 25 24 17 23 24 8 11 2 15 3 13 10 27 23 5 5 27 5 4 3 21 1 20 19 14 26 2 0 10 29 10 5 21 24 19 12 9 28 23 0 21 2 21 6 4 7 12 7 15 10 19 


p64
23584.0
1 1 1 1 1 1 1 1 1 1 1 1 1 1 1 1 1 1 1 1 1 1 1 1 1 1 1 1 1 1 
18 19 21 27 2 12 15 0 22 14 4 28 13 1 28 18 1 19 22 0 18 16 5 24 23 18 27 19 29 2 19 6 4 16 27 6 20 8 24 16 18 9 6 4 8 19 13 15 19 14 24 16 24 16 10 6 7 9 18 7 29 0 7 8 3 11 5 14 28 25 18 12 19 8 23 23 20 23 8 16 10 0 9 25 29 13 6 5 27 7 28 6 7 25 2 3 27 6 0 18 8 15 25 18 4 0 4 28 22 3 19 4 27 12 12 8 28 7 17 8 26 11 17 19 26 16 2 11 26 17 28 24 11 20 23 9 3 3 17 10 12 22 12 12 25 5 24 15 27 25 24 17 23 0 20 11 2 15 10 13 13 27 10 0 5 27 5 4 3 21 1 20 17 17 26 2 0 13 29 10 5 21 2 19 12 8 28 23 0 21 2 21 6 4 7 12 7 15 10 19 


p65
32608.0
1 1 1 1 1 1 1 1 1 1 1 1 1 1 1 1 1 1 1 1 1 1 1 1 1 1 1 1 1 1 
18 19 21 27 2 12 21 25 18 28 4 17 13 1 28 18 1 20 22 0 18 16 5 24 10 18 27 6 29 2 19 6 4 16 27 6 20 8 24 16 18 9 11 4 20 26 13 21 4 14 24 16 24 16 8 6 11 9 18 25 4 0 7 8 13 12 14 10 28 25 18 12 19 9 23 23 20 0 8 24 20 0 9 25 29 9 6 5 27 7 28 4 25 25 2 3 11 6 0 28 28 15 25 7 4 0 4 27 22 3 19 4 27 25 11 8 0 7 17 8 26 11 17 4 29 16 21 18 19 17 0 24 25 8 23 9 3 3 28 14 12 22 28 11 25 5 24 15 27 25 24 17 23 0 8 11 2 15 3 13 13 27 13 2 5 27 5 4 3 16 1 20 17 14 26 2 0 10 29 13 5 21 2 19 12 8 28 23 0 21 2 21 6 6 7 12 7 15 23 19 


p66
53744.0
1 1 1 1 1 1 1 1 1 1 1 1 1 1 1 1 1 1 1 1 1 1 1 1 1 1 1 1 1 1 
18 6 21 27 2 12 15 27 22 28 4 28 10 1 28 18 1 20 22 0 18 16 5 0 10 18 27 14 29 2 19 19 4 16 27 6 20 8 24 16 18 9 19 4 8 19 13 21 19 14 24 16 24 16 8 6 11 9 18 7 29 0 18 8 13 11 23 14 28 25 7 12 19 9 10 23 8 10 8 16 20 0 9 25 29 10 4 5 27 7 28 19 25 25 2 3 11 6 0 28 28 15 25 18 4 0 4 24 22 1 19 4 27 12 12 8 28 25 0 20 26 11 17 19 26 16 21 12 4 17 28 24 25 23 23 9 3 3 28 10 12 22 11 11 25 5 24 15 24 25 24 17 23 27 8 11 2 15 3 13 13 27 10 24 5 27 5 4 3 21 1 20 19 14 26 2 0 10 29 20 5 21 0 19 12 8 28 23 0 21 2 21 6 4 25 12 7 15 10 19 


p67
39472.0
1 1 1 1 1 1 1 1 1 1 1 1 1 1 1 1 1 1 1 1 1 1 1 1 1 1 1 1 1 1 
18 19 21 22 2 12 15 28 22 28 4 28 13 1 28 18 1 20 22 28 18 16 5 24 10 27 27 19 29 2 19 19 4 16 27 6 20 8 24 15 18 9 6 26 8 19 23 21 19 14 24 21 24 16 8 6 25 9 18 25 29 0 7 8 13 11 5 14 28 25 7 19 19 9 23 23 20 17 8 16 10 0 9 7 29 13 19 5 27 7 28 6 18 11 2 3 27 19 0 28 28 15 25 18 4 0 4 24 22 3 19 4 27 12 12 10 28 7 17 8 26 11 17 19 26 16 2 11 26 17 24 24 25 20 23 9 3 3 28 10 6 22 11 28 25 5 24 15 27 25 24 17 23 0 20 11 15 15 3 13 13 27 10 27 5 27 5 4 3 21 1 20 19 20 26 2 0 10 29 10 5 21 21 19 28 3 28 23 24 21 2 21 19 4 7 12 7 15 10 28 


p68
23545.0
1 1 1 1 1 1 1 1 1 1 1 1 1 1 1 1 1 1 1 1 1 1 1 1 1 1 1 1 1 1 
18 19 21 27 2 12 15 24 22 28 4 17 10 1 28 18 1 26 22 0 27 16 5 24 10 18 27 17 29 2 19 19 4 16 27 6 20 8 24 16 18 9 6 4 8 19 13 21 19 14 24 16 24 16 8 12 11 9 18 25 29 5 7 8 13 11 5 14 28 25 18 12 6 9 23 23 20 23 8 16 10 0 14 25 4 13 26 5 22 7 6 6 25 25 24 3 27 6 0 28 14 15 25 18 4 0 4 24 22 3 19 4 27 12 12 20 28 7 14 8 26 11 11 19 26 15 24 11 26 17 28 21 25 20 1 9 3 3 28 14 12 22 11 11 25 5 24 16 27 25 24 17 10 0 8 11 2 15 3 13 13 27 10 2 5 27 5 29 3 21 1 20 28 14 4 2 28 10 29 26 5 21 21 19 12 8 28 23 0 21 2 0 6 4 7 12 7 15 10 19 


p69
32625.0
1 1 1 1 1 1 1 1 1 1 1 1 1 1 1 1 1 1 1 1 1 1 1 1 1 1 1 1 1 1 
18 19 21 27 2 12 15 27 22 28 4 28 13 1 28 18 1 20 22 17 27 16 5 24 10 18 27 19 29 2 19 19 4 16 27 11 20 8 24 16 11 9 6 4 8 19 13 2 19 14 24 16 24 16 8 6 6 9 18 25 29 0 7 8 13 11 2 14 17 25 18 12 19 23 23 23 20 23 8 16 10 0 9 25 29 13 12 5 27 7 28 6 18 25 2 3 11 19 10 11 28 15 25 18 4 24 4 24 22 3 19 4 27 12 12 8 28 7 17 8 26 28 17 19 26 16 2 11 26 0 11 24 25 20 23 9 3 3 28 10 12 11 11 25 25 5 21 15 27 25 24 0 5 0 8 11 2 15 3 13 13 27 10 24 5 27 5 4 3 21 1 20 19 23 26 2 0 13 29 10 5 21 2 19 12 9 28 23 0 21 2 21 6 4 7 12 7 15 10 19 


p70
53652.0
1 1 1 1 1 1 1 1 1 1 1 1 1 1 1 1 1 1 1 1 1 1 1 1 1 1 1 1 1 1 
18 19 21 27 2 12 15 27 22 11 4 28 13 1 17 18 13 10 22 0 27 24 23 24 13 18 27 19 29 15 19 19 4 16 27 6 20 8 24 16 18 9 6 4 8 19 13 21 19 14 24 16 24 16 8 6 11 9 18 7 29 0 7 8 13 11 5 23 28 25 18 12 19 9 23 23 20 23 8 16 3 0 9 25 29 13 4 5 27 7 28 14 25 25 2 3 11 6 0 28 28 15 25 7 4 0 4 24 22 3 19 4 27 19 12 8 28 7 23 8 8 11 17 4 26 16 5 11 26 17 28 21 25 20 23 9 3 13 28 10 12 22 11 11 25 5 24 21 27 25 24 17 23 0 9 11 2 15 1 13 1 27 10 2 5 27 5 4 3 16 1 20 19 14 26 2 0 10 29 13 23 24 21 19 12 8 28 23 0 21 2 21 6 4 7 12 11 15 10 19 


p71
38641.0
1 1 1 1 1 1 1 1 1 1 1 1 1 1 1 1 1 1 1 1 1 1 1 1 1 1 1 1 1 1 
18 19 21 24 2 29 15 25 22 11 4 26 13 1 28 18 1 3 22 0 18 16 23 24 10 18 27 14 29 2 19 26 4 16 27 6 20 8 24 15 18 9 28 29 8 19 13 17 19 14 24 16 18 21 8 6 11 9 18 7 29 0 7 20 13 11 5 14 28 25 18 12 19 14 23 23 14 23 8 23 10 0 4 25 29 13 6 5 27 7 28 6 25 11 2 3 11 6 0 28 14 15 25 18 4 5 4 24 22 3 19 4 27 12 12 8 28 7 17 8 9 11 17 19 14 16 16 11 26 17 28 24 25 20 3 9 3 3 28 10 12 22 11 25 25 5 24 15 18 25 24 17 23 2 8 28 17 15 3 13 13 27 10 24 20 27 5 4 3 21 1 17 19 14 26 2 0 13 29 10 5 21 2 28 12 8 28 23 0 21 2 2 6 4 7 25 7 15 10 19 

